
n_res = 4;
rcap = [51, 51, 380, 385];
rtype = [1, 1, 2, 2];
n_tasks = 100;
modes =  [{1, 2, 3}, {4, 5, 6}, {7, 8, 9}, {10, 11, 12}, {13, 14, 15}, {16, 17, 18}, {19, 20, 21}, {22, 23, 24}, {25, 26, 27}, {28, 29, 30}, {31, 32, 33}, {34, 35, 36}, {37, 38, 39}, {40, 41, 42}, {43, 44, 45}, {46, 47, 48}, {49, 50, 51}, {52, 53, 54}, {55, 56, 57}, {58, 59, 60}, {61, 62, 63}, {64, 65, 66}, {67, 68, 69}, {70, 71, 72}, {73, 74, 75}, {76, 77, 78}, {79, 80, 81}, {82, 83, 84}, {85, 86, 87}, {88, 89, 90}, {91, 92, 93}, {94, 95, 96}, {97, 98, 99}, {100, 101, 102}, {103, 104, 105}, {106, 107, 108}, {109, 110, 111}, {112, 113, 114}, {115, 116, 117}, {118, 119, 120}, {121, 122, 123}, {124, 125, 126}, {127, 128, 129}, {130, 131, 132}, {133, 134, 135}, {136, 137, 138}, {139, 140, 141}, {142, 143, 144}, {145, 146, 147}, {148, 149, 150}, {151, 152, 153}, {154, 155, 156}, {157, 158, 159}, {160, 161, 162}, {163, 164, 165}, {166, 167, 168}, {169, 170, 171}, {172, 173, 174}, {175, 176, 177}, {178, 179, 180}, {181, 182, 183}, {184, 185, 186}, {187, 188, 189}, {190, 191, 192}, {193, 194, 195}, {196, 197, 198}, {199, 200, 201}, {202, 203, 204}, {205, 206, 207}, {208, 209, 210}, {211, 212, 213}, {214, 215, 216}, {217, 218, 219}, {220, 221, 222}, {223, 224, 225}, {226, 227, 228}, {229, 230, 231}, {232, 233, 234}, {235, 236, 237}, {238, 239, 240}, {241, 242, 243}, {244, 245, 246}, {247, 248, 249}, {250, 251, 252}, {253, 254, 255}, {256, 257, 258}, {259, 260, 261}, {262, 263, 264}, {265, 266, 267}, {268, 269, 270}, {271, 272, 273}, {274, 275, 276}, {277, 278, 279}, {280, 281, 282}, {283, 284, 285}, {286, 287, 288}, {289, 290, 291}, {292, 293, 294}, {295, 296, 297}, {298, 299, 300}];
succ =  [{100, 65, 58, 46, 44, 41, 40, 38, 35, 11}, {99, 95, 94, 60, 59, 57, 54, 52, 48, 47, 45, 37, 35, 14}, {99, 94, 57, 51, 45, 37, 35, 33, 14}, {99, 96, 95, 94, 93, 92, 91, 63, 61, 60, 59, 58, 56, 54, 50, 46, 45, 37, 34}, {96, 95, 91, 67, 66, 65, 63, 62, 58, 54, 51, 49, 35, 34, 20}, {99, 98, 92, 60, 59, 57, 44, 41, 33, 19}, {100, 94, 91, 85, 58, 55, 41, 39, 34, 33, 25}, {99, 95, 94, 93, 89, 85, 63, 56, 50, 46, 45, 39, 37, 36, 34}, {97, 95, 94, 93, 91, 90, 89, 88, 86, 85, 83, 82, 67, 66, 65, 64, 63, 59, 56, 55, 54, 52, 43, 34}, {99, 98, 97, 96, 94, 93, 92, 91, 89, 88, 85, 66, 65, 56, 54, 50, 49, 45, 34}, {98, 92, 90, 80, 66, 60, 57, 53, 19}, {95, 92, 89, 85, 76, 65, 63, 62, 56, 54, 53, 46, 40, 36}, {97, 95, 92, 89, 87, 86, 85, 74, 67, 66, 65, 62, 55, 49, 46, 34}, {97, 96, 93, 92, 91, 89, 85, 74, 66, 65, 64, 63, 62, 56, 46, 34}, {99, 95, 94, 93, 90, 86, 83, 82, 81, 80, 64, 62, 61, 59, 58, 54, 37}, {99, 95, 94, 92, 90, 89, 88, 84, 82, 76, 73, 64, 51, 47, 45, 43}, {99, 96, 94, 91, 90, 80, 75, 73, 63, 53, 50, 49, 45, 37}, {95, 92, 88, 86, 85, 83, 77, 65, 63, 62, 54, 51, 49, 34}, {97, 94, 91, 89, 88, 87, 85, 75, 73, 63, 50, 49, 45}, {98, 94, 93, 92, 90, 89, 88, 86, 85, 83, 82, 78, 77, 76, 75, 73, 72, 71, 69, 64, 56, 53}, {97, 91, 89, 88, 86, 85, 84, 83, 79, 78, 77, 76, 72, 63, 52, 39}, {99, 95, 92, 91, 89, 88, 86, 84, 83, 82, 76, 74, 73, 72, 65, 63, 59, 43}, {100, 99, 93, 87, 85, 82, 81, 80, 72, 70, 69, 62, 57, 54, 46}, {94, 93, 92, 90, 89, 85, 77, 75, 74, 34}, {90, 78, 76, 73, 68, 64, 45, 35}, {91, 90, 88, 86, 85, 84, 82, 81, 78, 76, 72, 71, 68, 64, 63, 54}, {87, 86, 85, 78, 77, 73, 72, 70, 65, 63, 58, 49}, {87, 86, 84, 83, 82, 78, 77, 76, 70, 69, 66, 65, 57, 54}, {94, 88, 85, 81, 79, 78, 77, 70, 68, 65, 63, 62, 54}, {99, 93, 92, 87, 85, 84, 75, 73, 69, 68, 45}, {93, 85, 83, 82, 77, 76, 74, 72, 71, 56, 51}, {100, 98, 91, 83, 80, 79, 76, 74, 69, 66, 50}, {97, 93, 90, 86, 78, 76, 73, 72, 63, 53}, {80, 78, 76, 73, 72, 71, 69, 53}, {88, 86, 83, 82, 80, 77, 75, 74, 71, 70, 69}, {91, 87, 86, 81, 80, 79, 73, 72, 70, 69, 68}, {87, 84, 78, 77, 76, 72, 70, 69, 65}, {94, 89, 87, 81, 80, 76, 72, 68, 62}, {92, 82, 69, 66, 54}, {96, 93, 82, 80, 78, 74, 73, 68}, {95, 83, 81, 80, 69, 68, 64}, {85, 80, 74, 71, 70, 68, 63}, {96, 80, 79, 78, 75, 69, 68}, {90, 86, 80, 73, 72, 69, 68}, {83, 81, 77, 74, 70, 62}, {90, 88, 83, 79, 77, 75}, {91, 85, 77, 72, 70, 68}, {78, 76, 73, 72, 70, 69}, {84, 82, 76, 68, 64}, {86, 82, 78, 72, 68}, {87, 79, 75, 70, 68}, {81, 71, 70, 69, 68}, {84, 81, 70, 68}, {75, 74, 73}, {77, 72, 71}, {87, 80}, {75, 68}, {89, 68}, {71, 70}, {76, 74}, {85, 68}, {71}, {69}, {79}, {71}, {68}, {77}, {}, {}, {}, {}, {}, {}, {}, {}, {}, {}, {}, {}, {}, {}, {}, {}, {}, {}, {}, {}, {}, {}, {}, {}, {}, {}, {}, {}, {}, {}, {}, {}, {}];
n_opt = 300;
dur = [3, 7, 8, 2, 6, 10, 1, 5, 8, 3, 8, 9, 2, 8, 10, 1, 1, 5, 1, 2, 4, 3, 5, 6, 1, 2, 4, 2, 5, 10, 4, 5, 10, 2, 3, 8, 3, 5, 6, 1, 4, 6, 4, 7, 9, 6, 6, 9, 4, 5, 6, 2, 3, 8, 4, 4, 10, 2, 3, 7, 2, 3, 9, 1, 3, 5, 2, 3, 9, 5, 5, 9, 1, 5, 6, 2, 6, 8, 4, 7, 10, 3, 6, 10, 7, 10, 10, 1, 6, 9, 2, 2, 7, 2, 4, 6, 4, 6, 10, 3, 6, 7, 4, 5, 8, 6, 8, 10, 4, 5, 9, 6, 7, 9, 5, 7, 10, 1, 3, 6, 3, 4, 8, 1, 5, 9, 3, 7, 9, 7, 9, 10, 3, 4, 5, 4, 5, 6, 2, 3, 7, 1, 2, 10, 3, 4, 9, 3, 7, 8, 3, 4, 10, 2, 4, 10, 5, 9, 10, 7, 8, 9, 1, 7, 8, 2, 3, 10, 1, 3, 6, 1, 5, 10, 5, 6, 8, 4, 6, 10, 1, 4, 6, 4, 9, 10, 3, 9, 10, 3, 5, 6, 4, 7, 10, 5, 8, 9, 1, 2, 4, 3, 5, 10, 1, 5, 7, 1, 3, 4, 2, 6, 7, 6, 7, 7, 6, 9, 10, 1, 4, 6, 1, 5, 10, 3, 4, 8, 2, 5, 6, 3, 5, 9, 1, 2, 6, 2, 5, 10, 4, 8, 9, 2, 3, 10, 3, 4, 9, 5, 5, 6, 2, 8, 9, 2, 3, 6, 2, 6, 10, 1, 2, 9, 3, 6, 10, 1, 2, 6, 2, 7, 9, 4, 5, 5, 1, 1, 6, 2, 3, 10, 3, 8, 9, 2, 6, 10, 3, 4, 10, 2, 3, 6, 7, 9, 10, 4, 5, 9];
rreq = [|2, 2, 1, 4, 3, 1, 2, 2, 1, 2, 2, 2, 3, 3, 2, 3, 3, 2, 2, 2, 2, 5, 3, 2, 4, 4, 4, 5, 4, 4, 3, 3, 3, 4, 3, 2, 4, 4, 4, 4, 2, 2, 2, 2, 2, 1, 1, 1, 3, 2, 2, 1, 1, 1, 2, 1, 1, 3, 3, 3, 5, 4, 4, 5, 3, 3, 3, 3, 1, 4, 4, 4, 3, 3, 3, 4, 3, 1, 5, 3, 3, 5, 3, 3, 4, 4, 4, 5, 3, 3, 2, 1, 1, 3, 2, 1, 4, 4, 4, 4, 2, 2, 1, 1, 1, 4, 4, 4, 3, 3, 3, 2, 2, 2, 3, 3, 2, 3, 2, 1, 4, 3, 2, 5, 4, 4, 2, 2, 2, 4, 3, 3, 3, 1, 1, 4, 3, 3, 5, 4, 3, 5, 5, 5, 3, 3, 3, 3, 3, 2, 5, 4, 3, 4, 2, 1, 3, 1, 1, 1, 1, 1, 4, 4, 4, 4, 4, 4, 5, 3, 3, 2, 2, 2, 3, 3, 3, 4, 4, 4, 4, 3, 2, 3, 2, 2, 5, 4, 4, 5, 2, 1, 3, 3, 3, 4, 4, 4, 4, 3, 3, 4, 3, 2, 2, 2, 2, 2, 1, 1, 4, 4, 3, 3, 2, 2, 2, 2, 2, 5, 4, 4, 2, 1, 1, 4, 3, 3, 3, 3, 2, 2, 2, 2, 1, 1, 1, 4, 4, 4, 4, 4, 3, 5, 3, 2, 3, 3, 3, 3, 3, 2, 4, 3, 2, 2, 1, 1, 2, 1, 1, 5, 4, 4, 3, 3, 3, 3, 3, 3, 5, 2, 1, 4, 3, 3, 2, 2, 2, 1, 1, 1, 5, 4, 3, 2, 2, 2, 4, 2, 2, 3, 2, 1, 3, 2, 1, 4, 3, 1
 |2, 1, 1, 3, 2, 2, 5, 4, 4, 4, 2, 2, 2, 2, 1, 3, 2, 1, 4, 3, 2, 3, 3, 3, 4, 3, 1, 5, 5, 5, 2, 1, 1, 4, 3, 2, 5, 5, 5, 2, 2, 1, 3, 3, 3, 4, 4, 4, 5, 5, 5, 4, 4, 3, 1, 1, 1, 2, 2, 1, 3, 2, 2, 3, 2, 2, 4, 4, 4, 2, 1, 1, 5, 4, 4, 4, 3, 2, 2, 2, 2, 5, 4, 4, 3, 2, 1, 4, 4, 4, 3, 3, 3, 2, 2, 2, 4, 2, 2, 4, 4, 4, 4, 2, 1, 2, 1, 1, 2, 1, 1, 5, 4, 2, 5, 4, 2, 3, 2, 2, 4, 3, 2, 3, 2, 2, 5, 4, 4, 2, 2, 2, 1, 1, 1, 4, 2, 2, 3, 2, 2, 2, 1, 1, 1, 1, 1, 5, 4, 4, 2, 2, 2, 2, 1, 1, 2, 2, 2, 5, 5, 5, 1, 1, 1, 1, 1, 1, 4, 3, 3, 3, 2, 2, 3, 2, 2, 4, 4, 3, 3, 2, 1, 3, 3, 3, 5, 5, 5, 4, 2, 1, 3, 3, 1, 2, 2, 2, 1, 1, 1, 4, 3, 2, 4, 4, 3, 4, 4, 4, 4, 3, 3, 3, 3, 2, 5, 3, 3, 4, 4, 3, 3, 2, 2, 3, 2, 2, 3, 2, 2, 2, 2, 2, 4, 4, 4, 4, 2, 2, 3, 2, 1, 4, 4, 4, 4, 3, 1, 3, 2, 2, 3, 3, 3, 2, 2, 2, 3, 2, 2, 4, 2, 2, 5, 4, 4, 1, 1, 1, 3, 3, 3, 4, 3, 2, 5, 5, 5, 4, 3, 2, 2, 2, 2, 3, 2, 2, 4, 3, 3, 3, 2, 2, 1, 1, 1, 2, 2, 2
 |0, 0, 0, 7, 0, 3, 0, 0, 0, 0, 0, 0, 6, 0, 0, 9, 0, 5, 0, 1, 0, 0, 0, 0, 5, 5, 5, 0, 0, 3, 0, 10, 9, 6, 6, 3, 0, 7, 6, 0, 5, 0, 0, 0, 9, 10, 0, 0, 0, 0, 0, 0, 0, 0, 0, 0, 0, 5, 4, 0, 8, 3, 0, 6, 0, 0, 0, 7, 7, 0, 2, 0, 3, 2, 0, 7, 0, 3, 0, 0, 7, 5, 0, 3, 3, 0, 3, 7, 3, 2, 5, 0, 4, 4, 0, 2, 6, 0, 0, 5, 4, 0, 7, 6, 4, 0, 2, 1, 6, 5, 0, 9, 7, 5, 0, 0, 9, 0, 2, 2, 0, 5, 5, 6, 0, 0, 7, 5, 4, 0, 8, 7, 0, 0, 0, 0, 7, 5, 0, 0, 5, 7, 7, 0, 8, 7, 6, 8, 0, 0, 6, 5, 0, 7, 0, 0, 4, 4, 0, 0, 0, 0, 0, 0, 1, 10, 8, 0, 0, 0, 0, 0, 0, 2, 7, 0, 6, 0, 0, 7, 0, 0, 3, 0, 0, 0, 6, 5, 4, 0, 0, 2, 0, 2, 0, 0, 6, 5, 0, 0, 0, 0, 6, 6, 5, 4, 2, 0, 8, 0, 7, 6, 0, 0, 0, 8, 0, 4, 3, 0, 2, 0, 0, 0, 6, 7, 0, 5, 0, 4, 4, 6, 3, 0, 0, 8, 7, 7, 6, 0, 8, 5, 0, 4, 0, 4, 6, 6, 0, 0, 9, 8, 0, 7, 5, 8, 6, 2, 8, 0, 8, 0, 7, 0, 7, 5, 4, 0, 5, 4, 0, 0, 2, 2, 0, 1, 7, 0, 1, 7, 0, 0, 4, 3, 0, 6, 0, 4, 0, 0, 0, 0, 0, 0, 0, 0, 0, 0, 0, 0
 |4, 4, 4, 0, 1, 0, 9, 9, 8, 3, 2, 1, 0, 6, 5, 0, 4, 0, 9, 0, 8, 6, 5, 4, 0, 0, 0, 3, 3, 0, 9, 0, 0, 0, 0, 0, 7, 0, 0, 2, 0, 1, 6, 5, 0, 0, 4, 3, 7, 3, 2, 7, 6, 3, 1, 2, 1, 0, 0, 2, 0, 0, 2, 0, 2, 1, 3, 0, 0, 7, 0, 3, 0, 0, 6, 0, 6, 0, 7, 7, 0, 0, 8, 0, 0, 5, 0, 0, 0, 0, 0, 1, 0, 0, 3, 0, 0, 3, 2, 0, 0, 5, 0, 0, 0, 8, 0, 0, 0, 0, 4, 0, 0, 0, 9, 4, 0, 6, 0, 0, 6, 0, 0, 0, 3, 2, 0, 0, 0, 7, 0, 0, 5, 5, 4, 5, 0, 0, 6, 5, 0, 0, 0, 4, 0, 0, 0, 0, 5, 1, 0, 0, 7, 0, 1, 1, 0, 0, 3, 10, 4, 3, 5, 4, 0, 0, 0, 5, 7, 5, 4, 6, 4, 0, 0, 6, 0, 8, 6, 0, 9, 5, 0, 6, 6, 5, 0, 0, 0, 5, 5, 0, 4, 0, 4, 8, 0, 0, 4, 2, 1, 6, 0, 0, 0, 0, 0, 10, 0, 9, 0, 0, 1, 9, 8, 0, 7, 0, 0, 9, 0, 5, 4, 2, 0, 0, 5, 0, 6, 0, 0, 0, 0, 5, 8, 0, 0, 0, 0, 4, 0, 0, 2, 0, 7, 0, 0, 0, 4, 8, 0, 0, 8, 0, 0, 0, 0, 0, 0, 9, 0, 7, 0, 7, 0, 0, 0, 9, 0, 0, 6, 5, 0, 0, 4, 0, 0, 2, 0, 0, 8, 6, 0, 0, 2, 0, 4, 0, 9, 9, 8, 8, 8, 8, 8, 7, 7, 3, 1, 1|];